
param N := 5;
param M := 3;
param alpha := 0.8;
param k := 2;


param q:
	1   2    3    4    5 :=
1	10  1    2    1    -3
2	1   8    3    2    3
3	2   3    7    1    3
4	1   2    1    9    1
5       -3   3    3    1    6;

param r :=
1	0.1
2	0.5
3	0.9
4	2.1
5	2.6;
